17	4	3
11	12	9	9	37	33	25	
0	0	0	0	0	9	9	1	5	2	3	3	2	3	4
4	1	0	0	0	8	7	1	5	5	5	3	5	7	17
3	0	0	0	2	7	9	6	3	9	7	1	17
10	0	0	0	4	1	10	5	4	4	10	1	17
10	0	0	1	0	10	2	10	9	2	10	3	6	9	10
125	0	10	0	0	10	1	9	10	6	1	1	17
25	0	3	0	0	2	3	7	3	8	1	3	8	11	17
175	3	0	0	0	8	4	9	3	6	7	1	17
100	0	0	0	1	10	7	7	5	1	10	3	13	14	16
125	0	0	0	6	4	10	1	3	9	3	1	17
175	0	0	0	6	2	8	4	1	7	9	1	12
250	0	3	0	0	1	9	2	7	2	10	1	17
2	0	7	0	0	7	9	3	6	2	9	1	17
4	0	0	2	0	3	2	5	9	6	5	2	15	17
5	0	5	0	0	9	10	4	10	2	2	1	17
5	0	0	0	1	3	4	10	7	4	7	1	17
0	0	0	0	0	6	4	6	7	1	7	0
